NAME          BLANK   
ROWS
 N  OBJROW
 E  r09
 E  r10
 L  x05
 L  x21
 E  r12
 E  r13
 L  x17
 L  x18
 L  x19
 L  x20
 E  r19
 E  r20
 L  x27
 L  x44
 E  r22
 E  r23
 L  x40
 L  x41
 L  x42
 L  x43
 L  x45
 L  x46
 L  x47
 L  x48
 L  x49
 L  x50
 L  x51
COLUMNS
    x01       r09        -1.           r10        -1.06      
    x01       x05       1.             x48       0.301       
    x02       OBJROW     -0.4          r09       1.          
    x02       x21        -1.        
    x03       r09       1.             x46        -1.        
    x04       r10       1.             x50       1.          
    x06       r12        -1.           r13        -1.06      
    x06       x17       1.             x49       0.301       
    x07       r12        -1.           r13        -1.06      
    x07       x18       1.             x49       0.313       
    x08       r12        -1.           r13        -0.96      
    x08       x19       1.             x49       0.313       
    x09       r12        -1.           r13        -0.86      
    x09       x20       1.             x49       0.326       
    x10       x17        -1.           x45       2.364       
    x11       x18        -1.           x45       2.386       
    x12       x19        -1.           x45       2.408       
    x13       x20        -1.           x45       2.429       
    x14       OBJROW     -0.32         x21       1.4         
    x14       r12       1.          
    x15       r12       1.             x47        -1.        
    x16       r13       1.             x51       1.          
    x22       r19        -1.           r20        -0.43      
    x22       x27       1.             x46       0.109       
    x23       OBJROW     -0.6          r19       1.          
    x23       x44        -1.        
    x24       r19       1.             x48        -1.        
    x25       r19       1.             x45        -1.        
    x26       r20       1.             x50       1.          
    x28       r22        -0.43         r23       1.          
    x28       x40       1.             x47       0.109       
    x29       r22        -0.43         r23       1.          
    x29       x41       1.             x47       0.108       
    x30       r22        -0.39         r23       1.          
    x30       x42       1.             x47       0.108       
    x31       r22        -0.37         r23       1.          
    x31       x43       1.             x47       0.107       
    x32       x40        -1.           x45       2.191       
    x33       x41        -1.           x45       2.219       
    x34       x42        -1.           x45       2.249       
    x35       x43        -1.           x45       2.279       
    x36       OBJROW     -0.48         x44       1.4         
    x36       r23        -1.        
    x37       r23       1.             x49        -1.        
    x38       r22       1.             x51       1.          
    x39       OBJROW    10.            r23       1.          
RHS
    RHS       x05       80.            x17       80.         
    RHS       x27       500.           r23       44.         
    RHS       x40       500.           x50       310.        
    RHS       x51       300.        
ENDATA
